c ---- [ banner ] ------------------------------------------------------------
c
c Kissat SAT Solver
c 
c Copyright (c) 2021-2024 Armin Biere University of Freiburg
c Copyright (c) 2019-2021 Armin Biere Johannes Kepler University Linz
c 
c Version 4.0.1 43f02cf3e992cb44653b35e5cb26f93281552ae0
c gcc (Ubuntu 13.2.0-23ubuntu4) 13.2.0 -W -Wall -O3 -DNDEBUG
c Thu Sep 12 12:27:46 CEST 2024 Linux abryzen9 6.8.0-41-generic x86_64
c
c ---- [ parsing ] -----------------------------------------------------------
c
c opened and reading DIMACS file:
c
c   /data/artifact/AMulet2.0_artifact/exp4/cnf_sopb_64/64_64_U1_WT_RC_Multgen_sopb.cnf
c
c parsed 'p cnf 29149 129174' header
c closing input after reading 2588489 bytes (2 MB)
c finished parsing after 0.02 seconds
c
c ---- [ options ] -----------------------------------------------------------
c
c --stable=0                       (different from default '1')
c
c ---- [ solving ] -----------------------------------------------------------
c
c  seconds switched rate     size/glue tier1  binary           remaining
c         MB reductions conflicts size  tier2     irredundant
c          level restarts redundant glue  trail           variables
c
c *  0.02 10 0 0 0  0 0   0   0 0.0 0 0 0 0 0% 11200 117972 29146 100%
c (  0.04 12 0 0 0  0 0   0   0 0.0 0 0 0 0 0% 11200 117972 29146 100%
c .  0.04 12 0 0 0  0 0   0   0 0.0 0 0 0 0 0% 11196 117972 29146 100%
c c  0.10 18 0 0 0  0 0   0   0 0.0 0 0 0 0 0% 16051 108546 26730 92%
c d  0.10 18 0 0 0  0 0   0   0 0.0 0 0 0 0 0% 11219 108546 26730 92%
c =  0.14 18 0 0 0  0 0   0   0 0.0 0 0 0 0 0% 11337 108542 26593 91%
c d  0.15 18 0 0 0  0 0   0   0 0.0 0 0 0 0 0% 11059 108542 26593 91%
c f  0.24 17 0 0 0  0 0   0   0 0.0 0 0 0 0 0% 16409 100158 29585 101%
c e  0.37 23 0 0 0  0 0   0   0 0.0 0 0 0 0 0% 10490 108608 20564 71%
c )  0.37 23 0 0 0  0 0   0   0 0.0 0 0 0 0 0% 10490 108608 20564 71%
c {  0.38 24 0 0 0  0 0   0   0 0.0 0 0 2 6 0% 10490 108608 20564 71%
c -  0.56 24 186 0 1 347 54 1000 666 4.4 23 5 3 10 20% 10611 108599 20564 71%
c -  0.74 24 265 0 2 510 49 2000 1283 4.1 23 6 3 10 20% 10671 108599 20564 71%
c c  0.88 23 256 0 2 580 50 2503 1676 4.4 25 6 3 10 22% 10710 108512 20544 70%
c d  0.88 23 256 0 2 580 50 2503 1669 4.4 25 6 3 10 22% 10670 108512 20544 70%
c u  0.90 23 256 0 2 580 50 2503 1353 4.4 25 6 3 10 22% 10687 108512 20544 70%
c v  0.91 23 256 0 2 580 50 2503 1124 4.4 25 6 3 10 22% 10687 108512 20544 70%
c w  0.93 23 256 0 2 580 50 2503 1122 4.4 25 6 3 10 22% 10687 108512 20544 70%
c x  0.95 23 256 0 2 580 50 2503 1121 4.4 25 6 3 10 22% 10845 108154 20544 70%
c =  1.01 23 256 0 2 580 50 2503 1121 4.4 25 6 3 10 22% 11237 108149 20345 70%
c
c  seconds   switched   rate       size/glue tier1     binary           remaining
c         MB  reductions conflicts       size  tier2       irredundant
c           level restarts    redundant    glue    trail           variables
c
c d  1.02 23 256 0 2 580 50 2503 1119 4.4 25 6 3 10 22% 10838 108148 20345 70%
c t  1.03 23 256 0 2 580 50 2503 1119 4.4 25 6 3 10 22% 10819 108148 20345 70%
c f  1.05 23 256 0 2 580 50 2503 1119 4.4 25 6 3 10 22% 11956 106156 21192 73%
c u  1.07 24 256 0 2 580 50 2503 1064 4.4 25 6 3 10 22% 11961 106156 21192 73%
c v  1.08 24 256 0 2 580 50 2503 1023 4.4 25 6 3 10 22% 11961 106156 21192 73%
c w  1.11 24 256 0 2 580 50 2503 1020 4.4 25 6 3 10 22% 11961 106156 21192 73%
c x  1.12 24 256 0 2 580 50 2503 1020 4.4 25 6 3 10 22% 11961 105964 21192 73%
c =  1.18 24 256 0 2 580 50 2503 1020 4.4 25 6 3 10 22% 12079 105964 21133 73%
c d  1.19 24 256 0 2 580 50 2503 1019 4.4 25 6 3 10 22% 11936 105964 21132 72%
c f  1.22 24 256 0 2 580 50 2503 1019 4.4 25 6 3 10 22% 12451 105186 21392 73%
c -  1.38 24 251 0 3 717 50 3414 1570 4.5 26 6 3 10 23% 12466 105185 21392 73%
c -  1.69 24 238 0 4 925 43 5146 2739 4.2 25 6 3 11 25% 12521 105180 21392 73%
c i  1.77 24 258 0 4 980 42 5763 3252 4.2 25 6 3 11 25% 12557 105179 21391 73%
c i  1.77 24 258 0 4 980 42 5764 3252 4.2 25 6 3 11 25% 12557 105179 21390 73%
c -  1.96 24 300 0 5 1104 39 7146 3839 4.2 24 6 2 9 24% 12593 105176 21390 73%
c c  2.17 24 289 0 5 1212 40 7708 4336 4.3 26 6 2 9 25% 12615 105080 21366 73%
c d  2.18 24 289 0 5 1212 40 7708 4332 4.3 26 6 2 9 25% 12569 105078 21366 73%
c d  2.18 24 289 0 5 1212 40 7708 4332 4.3 26 6 2 9 25% 12567 105078 21365 73%
c u  2.20 24 289 0 5 1212 40 7708 3845 4.3 26 6 2 9 25% 12585 105078 21365 73%
c v  2.23 24 289 0 5 1212 40 7708 3298 4.3 26 6 2 9 25% 12585 105078 21365 73%
c
c  seconds   switched    rate       size/glue tier1    binary           remaining
c         MB  reductions  conflicts       size  tier2      irredundant
c           level  restarts    redundant    glue   trail           variables
c
c w  2.26 24 289 0 5 1212 40 7708 3298 4.3 26 6 2 9 25% 12585 105078 21365 73%
c x  2.28 24 289 0 5 1212 40 7708 3298 4.3 26 6 2 9 25% 12587 105061 21365 73%
c =  2.38 24 289 0 5 1212 40 7708 3298 4.3 26 6 2 9 25% 13333 105053 20992 72%
c d  2.39 24 289 0 5 1212 40 7708 3282 4.3 26 6 2 9 25% 12408 105053 20991 72%
c t  2.40 24 289 0 5 1212 40 7708 3282 4.3 26 6 2 9 25% 12367 105053 20991 72%
c f  2.43 24 289 0 5 1212 40 7708 3282 4.3 26 6 2 9 25% 14555 101747 22094 76%
c u  2.49 24 289 0 5 1212 40 7708 3180 4.3 26 6 2 9 25% 14557 101747 22094 76%
c v  2.51 24 289 0 5 1212 40 7708 3076 4.3 26 6 2 9 25% 14557 101747 22094 76%
c w  2.58 24 289 0 5 1212 40 7708 3058 4.3 26 6 2 9 25% 14557 101747 22094 76%
c =  2.68 24 289 0 5 1212 40 7708 3058 4.3 26 6 2 9 25% 15161 101747 21792 75%
c d  2.68 24 289 0 5 1212 40 7708 3049 4.3 26 6 2 9 25% 14447 101747 21792 75%
c t  2.69 24 289 0 5 1212 40 7708 3049 4.3 26 6 2 9 25% 14354 101747 21792 75%
c f  2.73 24 289 0 5 1212 40 7708 3049 4.3 26 6 2 9 25% 15592 99885 22415 77%
c -  2.90 24 285 0 6 1333 38 9383 3628 4.2 25 6 2 9 24% 15711 99882 22415 77%
c o  3.12 25 276 0 6 1383 37 10001 4072 4.1 26 6 2 9 24% 15752 99881 22415 77%
c -  3.49 25 281 0 7 1506 35 11833 4913 4.1 25 6 2 9 24% 15862 99867 22415 77%
c s  3.75 25 279 0 7 1563 35 12512 5537 4.1 25 6 2 9 24% 15880 96102 22415 77%
c e  3.88 25 279 0 7 1563 35 12512 5537 4.1 25 6 2 9 24% 15058 96604 21607 74%
c 2  3.88 25 279 0 7 1563 35 12512 5537 4.1 25 6 2 9 24% 15057 96604 21607 74%
c s  3.89 25 279 0 7 1563 35 12512 5537 4.1 25 6 2 9 24% 15068 95861 21607 74%
c
c  seconds   switched    rate        size/glue tier1    binary          remaining
c         MB  reductions   conflicts       size  tier2      irredundant
c           level  restarts     redundant    glue   trail          variables
c
c e  3.91 25 279 0 7 1563 35 12512 5537 4.1 25 6 2 9 24% 14559 96119 21353 73%
c ^  3.91 25 279 0 7 1563 35 12512 5537 4.1 25 6 2 9 24% 14559 96119 21353 73%
c -  4.39 25 294 0 8 1708 34 14478 5930 4.0 24 6 2 9 24% 14657 96116 21353 73%
c d  4.77 25 299 0 8 1843 34 15791 6957 3.6 25 7 2 9 24% 14134 96114 21007 72%
c u  4.83 25 299 0 8 1843 34 15791 6046 3.6 25 7 2 9 24% 14161 96114 21007 72%
c v  4.89 25 299 0 8 1843 34 15791 5289 3.6 25 7 2 9 24% 14163 96114 21007 72%
c w  4.97 25 299 0 8 1843 34 15791 5286 3.6 25 7 2 9 24% 14163 96114 21007 72%
c x  5.01 25 299 0 8 1843 34 15791 5285 3.6 25 7 2 9 24% 14166 96083 21007 72%
c =  5.20 25 299 0 8 1843 34 15791 5285 3.6 25 7 2 9 24% 14598 96083 20791 71%
c d  5.22 25 299 0 8 1843 34 15791 5249 3.6 25 7 2 9 24% 14131 96083 20790 71%
c t  5.24 25 299 0 8 1843 34 15791 5249 3.6 25 7 2 9 24% 14092 96083 20790 71%
c f  5.31 25 299 0 8 1843 34 15791 5249 3.6 25 7 2 9 24% 14133 95986 20815 71%
c b  5.40 25 299 0 8 1843 34 15791 5249 3.6 25 7 2 9 24% 14135 95986 20814 71%
c u  5.44 25 299 0 8 1843 34 15791 5079 3.6 25 7 2 9 24% 14139 95986 20814 71%
c v  5.49 25 299 0 8 1843 34 15791 4982 3.6 25 7 2 9 24% 14139 95986 20814 71%
c w  5.59 25 299 0 8 1843 34 15791 4951 3.6 25 7 2 9 24% 14139 95986 20814 71%
c =  5.79 25 299 0 8 1843 34 15791 4951 3.6 25 7 2 9 24% 16367 95986 19700 68%
c d  5.80 25 299 0 8 1843 34 15791 4872 3.6 25 7 2 9 24% 13158 95984 19700 68%
c t  5.82 25 299 0 8 1843 34 15791 4872 3.6 25 7 2 9 24% 13153 95984 19700 68%
c -  6.15 25 306 0 9 1919 33 17306 5538 3.6 24 7 2 9 25% 13201 95976 19700 68%
c
c  seconds   switched    rate        size/glue tier1    binary          remaining
c         MB  reductions   conflicts       size  tier2      irredundant
c           level  restarts     redundant    glue   trail          variables
c
c o  6.64 25 312 0 9 2155 32 20125 7908 3.6 25 7 2 9 25% 13308 95970 19700 68%
c -  6.79 25 310 0 10 2203 32 20309 7206 3.7 26 7 2 8 25% 13309 95970 19700 68%
c -  7.65 25 311 0 11 2477 33 23472 8854 3.9 29 8 2 8 25% 13375 95968 19700 68%
c s  7.97 25 306 0 11 2559 32 25016 10193 3.9 29 8 2 8 25% 13423 92005 19700 68%
c e  8.09 25 306 0 11 2559 32 25016 10193 3.9 29 8 2 8 25% 10724 95571 18219 63%
c s  8.10 25 306 0 11 2559 32 25016 10193 3.9 29 8 2 8 25% 10744 95395 18219 63%
c e  8.11 25 306 0 11 2559 32 25016 10193 3.9 29 8 2 8 25% 10723 95421 18212 62%
c ^  8.11 25 306 0 11 2559 32 25016 10193 3.9 29 8 2 8 25% 10723 95421 18212 62%
c -  8.50 25 307 0 12 2657 31 26789 9342 3.9 29 7 2 8 25% 10798 95419 18212 62%
c d  8.53 25 309 0 12 2661 31 26919 9447 3.9 29 7 2 8 25% 10520 95419 18048 62%
c u  8.60 25 309 0 12 2661 31 26919 8004 3.9 29 7 2 8 25% 10546 95419 18048 62%
c v  8.66 25 309 0 12 2661 31 26919 7137 3.9 29 7 2 8 25% 10547 95419 18048 62%
c w  8.68 25 309 0 12 2661 31 26919 7136 3.9 29 7 2 8 25% 10547 95419 18048 62%
c =  8.97 25 309 0 12 2661 31 26919 7136 3.9 29 7 2 8 25% 13545 95419 16549 57%
c d  8.98 25 309 0 12 2661 31 26919 6981 3.9 29 7 2 8 25% 10462 95419 16547 57%
c t  9.00 25 309 0 12 2661 31 26919 6981 3.9 29 7 2 8 25% 10379 95419 16547 57%
c f  9.08 25 309 0 12 2661 31 26919 6981 3.9 29 7 2 8 25% 10437 95223 16584 57%
c u  9.14 25 309 0 12 2661 31 26919 6623 3.9 29 7 2 8 25% 10438 95223 16584 57%
c v  9.18 25 309 0 12 2661 31 26919 6481 3.9 29 7 2 8 25% 10438 95223 16584 57%
c w  9.21 25 309 0 12 2661 31 26919 6480 3.9 29 7 2 8 25% 10438 95223 16584 57%
c
c  seconds   switched     rate        size/glue tier1    binary          remaining
c         MB   reductions   conflicts       size  tier2      irredundant
c           level   restarts     redundant    glue   trail          variables
c
c x  9.31 25 309 0 12 2661 31 26919 6480 3.9 29 7 2 8 25% 10531 87974 16584 57%
c =  9.58 25 309 0 12 2661 31 26919 6480 3.9 29 7 2 8 25% 11961 87974 15869 54%
c d  9.59 25 309 0 12 2661 31 26919 6417 3.9 29 7 2 8 25% 10509 87974 15869 54%
c t  9.61 25 309 0 12 2661 31 26919 6417 3.9 29 7 2 8 25% 10423 87974 15869 54%
c f  9.64 25 309 0 12 2661 31 26919 6417 3.9 29 7 2 8 25% 10432 87938 15878 54%
c - 10.47 25 310 0 13 2940 30 30253 8261 3.9 30 8 2 8 25% 10464 87936 15878 54%
c - 11.05 25 315 0 14 3133 29 33858 10173 3.8 28 8 2 8 25% 10535 87935 15878 54%
c - 11.67 25 308 0 15 3349 28 37600 11743 3.7 27 7 2 7 25% 10584 87934 15878 54%
c o 12.11 25 313 0 15 3503 27 40727 14507 3.6 27 7 2 7 25% 10640 87933 15878 54%
c c 12.31 25 312 0 15 3564 27 41247 14975 3.7 27 7 2 7 25% 10704 87630 15822 54%
c d 12.31 25 312 0 15 3564 27 41247 14832 3.7 27 7 2 7 25% 10592 87630 15822 54%
c u 12.39 25 312 0 15 3564 27 41247 12770 3.7 27 7 2 7 25% 10618 87630 15822 54%
c v 12.47 25 312 0 15 3564 27 41247 11244 3.7 27 7 2 7 25% 10623 87630 15822 54%
c w 12.57 25 312 0 15 3564 27 41247 11226 3.7 27 7 2 7 25% 10623 87630 15822 54%
c d 12.81 25 312 0 15 3564 27 41247 11224 3.7 27 7 2 7 25% 10621 87630 15821 54%
c t 12.83 25 312 0 15 3564 27 41247 11224 3.7 27 7 2 7 25% 10595 87630 15821 54%
c f 12.84 25 312 0 15 3564 27 41247 11224 3.7 27 7 2 7 25% 10595 87627 15822 54%
c u 12.92 25 312 0 15 3564 27 41247 10751 3.7 27 7 2 7 25% 10601 87627 15822 54%
c v 12.98 25 312 0 15 3564 27 41247 10507 3.7 27 7 2 7 25% 10602 87627 15822 54%
c w 13.07 25 312 0 15 3564 27 41247 10501 3.7 27 7 2 7 25% 10602 87627 15822 54%
c
c  seconds   switched     rate         size/glue tier1    binary          remaining
c         MB   reductions   conflicts        size  tier2      irredundant
c           level   restarts      redundant    glue   trail          variables
c
c x 13.14 25 312 0 15 3564 27 41247 10501 3.7 27 7 2 7 25% 10605 82757 15822 54%
c d 13.15 25 312 0 15 3564 27 41247 10500 3.7 27 7 2 7 25% 10603 82757 15821 54%
c t 13.17 25 312 0 15 3564 27 41247 10500 3.7 27 7 2 7 25% 10600 82757 15821 54%
c - 13.22 25 313 0 16 3567 27 41472 9456 3.7 27 7 2 7 25% 10606 82756 15821 54%
c - 13.76 25 311 0 17 3750 26 45472 11427 3.6 26 7 2 6 24% 10671 82753 15821 54%
c - 14.73 25 307 0 18 4088 26 49595 13379 3.6 27 7 2 6 24% 10733 82753 15821 54%
c s 15.19 25 301 0 18 4229 26 52123 15553 3.6 26 7 2 6 24% 10793 78753 15821 54%
c e 15.30 25 301 0 18 4229 26 52123 15553 3.6 26 7 2 6 24% 9841 80104 15377 53%
c s 15.30 25 301 0 18 4229 26 52123 15553 3.6 26 7 2 6 24% 9850 79745 15377 53%
c e 15.31 25 301 0 18 4229 26 52123 15553 3.6 26 7 2 6 24% 9842 79754 15373 53%
c ^ 15.31 25 301 0 18 4229 26 52123 15553 3.6 26 7 2 6 24% 9842 79754 15373 53%
c - 15.73 25 300 0 19 4383 26 53837 14279 3.6 27 7 2 6 24% 9876 79754 15373 53%
c - 16.76 25 292 0 20 4744 26 58195 14478 3.6 27 7 1 6 24% 9959 79754 15373 53%
c c 17.10 25 291 0 20 4836 26 58876 15059 3.6 27 8 1 6 24% 10096 78997 15264 52%
c d 17.11 25 291 0 20 4836 26 58876 14781 3.6 27 8 1 6 24% 9878 78997 15264 52%
c u 17.17 25 291 0 20 4836 26 58876 13079 3.6 27 8 1 6 24% 9891 78997 15264 52%
c v 17.26 25 291 0 20 4836 26 58876 10925 3.6 27 8 1 6 24% 9922 78997 15264 52%
c w 17.38 25 291 0 20 4836 26 58876 10920 3.6 27 8 1 6 24% 9922 78997 15264 52%
c x 17.48 25 291 0 20 4836 26 58876 10918 3.6 27 8 1 6 24% 9944 78437 15264 52%
c = 17.81 25 291 0 20 4836 26 58876 10918 3.6 27 8 1 6 24% 10202 78437 15135 52%
c
c  seconds   switched     rate         size/glue tier1    binary         remaining
c         MB   reductions   conflicts        size  tier2     irredundant
c           level   restarts      redundant    glue   trail         variables
c
c d 17.82 25 291 0 20 4836 26 58876 10801 3.6 27 8 1 6 24% 9871 78437 15112 52%
c t 17.84 25 291 0 20 4836 26 58876 10801 3.6 27 8 1 6 24% 9835 78437 15112 52%
c f 17.87 25 291 0 20 4836 26 58876 10801 3.6 27 8 1 6 24% 9836 78400 15118 52%
c c 17.94 25 291 0 20 4836 26 58876 10766 3.6 27 8 1 6 24% 9870 78259 15100 52%
c d 17.95 25 291 0 20 4836 26 58876 10766 3.6 27 8 1 6 24% 9834 78259 15100 52%
c u 18.00 25 291 0 20 4836 26 58876 10342 3.6 27 8 1 6 24% 9843 78259 15100 52%
c v 18.05 25 291 0 20 4836 26 58876 9874 3.6 27 8 1 6 24% 9849 78259 15100 52%
c w 18.16 25 291 0 20 4836 26 58876 9836 3.6 27 8 1 6 24% 9849 78259 15100 52%
c x 18.25 25 291 0 20 4836 26 58876 9836 3.6 27 8 1 6 24% 9859 77916 15100 52%
c = 18.60 25 291 0 20 4836 26 58876 9836 3.6 27 8 1 6 24% 11775 77916 14142 49%
c d 18.61 25 291 0 20 4836 26 58876 9510 3.6 27 8 1 6 24% 9817 77916 14137 49%
c t 18.63 25 291 0 20 4836 26 58876 9510 3.6 27 8 1 6 24% 9713 77916 14137 49%
c f 18.66 25 291 0 20 4836 26 58876 9510 3.6 27 8 1 6 24% 9740 77769 14156 49%
c - 19.40 25 281 0 21 5131 26 62667 10639 3.6 27 8 1 6 24% 9782 77769 14156 49%
c - 20.08 25 274 0 22 5383 25 67250 12467 3.5 26 7 1 6 24% 9850 77768 14156 49%
c o 20.69 25 268 0 22 5618 25 70923 15625 3.5 26 7 1 6 24% 9914 77760 14156 49%
c - 20.87 25 266 0 23 5701 25 71940 13789 3.5 26 7 1 6 24% 9944 77755 14156 49%
c - 21.85 25 261 0 24 6074 24 76735 14949 3.4 26 7 1 6 24% 10022 77754 14156 49%
c c 22.93 25 256 0 24 6468 25 79941 17701 3.5 26 8 1 6 24% 10223 76536 13947 48%
c d 22.94 25 256 0 24 6468 25 79941 17220 3.5 26 8 1 6 24% 9805 76536 13947 48%
c
c  seconds   switched     rate         size/glue tier1    binary         remaining
c         MB   reductions   conflicts        size  tier2     irredundant
c           level   restarts      redundant    glue   trail         variables
c
c u 23.00 25 256 0 24 6468 25 79941 15249 3.5 26 8 1 6 24% 9811 76536 13947 48%
c v 23.13 25 256 0 24 6468 25 79941 12608 3.5 26 8 1 6 24% 9840 76536 13947 48%
c w 23.26 25 256 0 24 6468 25 79941 12607 3.5 26 8 1 6 24% 9840 76536 13947 48%
c x 23.38 25 256 0 24 6468 25 79941 12607 3.5 26 8 1 6 24% 9851 69673 13947 48%
c = 23.67 25 256 0 24 6468 25 79941 12607 3.5 26 8 1 6 24% 10305 69673 13720 47%
c d 23.68 25 256 0 24 6468 25 79941 12402 3.5 26 8 1 6 24% 9774 69673 13711 47%
c t 23.70 25 256 0 24 6468 25 79941 12402 3.5 26 8 1 6 24% 9703 69673 13711 47%
c f 23.72 25 256 0 24 6468 25 79941 12402 3.5 26 8 1 6 24% 9714 69606 13721 47%
c c 23.79 25 256 0 24 6468 25 79941 12384 3.5 26 8 1 6 24% 9722 69574 13717 47%
c d 23.80 25 256 0 24 6468 25 79941 12384 3.5 26 8 1 6 24% 9714 69574 13717 47%
c u 23.85 25 256 0 24 6468 25 79941 11866 3.5 26 8 1 6 24% 9724 69574 13717 47%
c v 23.93 25 256 0 24 6468 25 79941 11260 3.5 26 8 1 6 24% 9728 69574 13717 47%
c w 24.12 25 256 0 24 6468 25 79941 11222 3.5 26 8 1 6 24% 9728 69574 13717 47%
c x 24.23 25 256 0 24 6468 25 79941 11214 3.5 26 8 1 6 24% 9756 68254 13717 47%
c = 24.67 25 256 0 24 6468 25 79941 11214 3.5 26 8 1 6 24% 10438 68174 13366 46%
c d 24.68 25 256 0 24 6468 25 79941 11034 3.5 26 8 1 6 24% 9692 68174 13366 46%
c t 24.70 25 256 0 24 6468 25 79941 11034 3.5 26 8 1 6 24% 9599 68174 13366 46%
c f 24.72 25 256 0 24 6468 25 79941 11034 3.5 26 8 1 6 24% 9614 68074 13381 46%
c - 25.03 25 254 0 25 6606 24 81635 10547 3.5 26 8 1 6 24% 9622 68073 13381 46%
c - 25.86 25 251 0 26 6941 24 86636 12779 3.4 26 8 1 6 24% 9679 68067 13381 46%
c
c  seconds   switched     rate         size/glue tier1    binary         remaining
c         MB   reductions   conflicts        size  tier2     irredundant
c           level   restarts      redundant    glue   trail         variables
c
c - 26.53 25 240 0 27 7185 23 91735 14778 3.4 25 7 1 6 24% 9740 68065 13381 46%
c s 26.93 25 235 0 27 7330 22 95790 18272 3.3 25 7 1 6 23% 9774 65885 13381 46%
c e 27.06 25 235 0 27 7330 22 95790 18272 3.3 25 7 1 6 23% 6369 73940 11682 40%
c 2 27.06 25 235 0 27 7330 22 95790 18272 3.3 25 7 1 6 23% 6363 73940 11682 40%
c s 27.08 25 235 0 27 7330 22 95790 18272 3.3 25 7 1 6 23% 6380 73352 11682 40%
c e 27.10 25 235 0 27 7330 22 95790 18272 3.3 25 7 1 6 23% 6334 73462 11655 40%
c ^ 27.10 25 235 0 27 7330 22 95790 18272 3.3 25 7 1 6 23% 6334 73462 11655 40%
c - 27.26 25 232 0 28 7397 22 96931 11589 3.3 24 7 1 6 23% 6338 73462 11655 40%
c - 28.67 25 226 0 29 8017 22 102222 13725 3.3 25 7 1 6 24% 6394 73460 11655 40%
c i 28.67 25 226 0 29 8017 22 102351 13809 3.3 25 7 1 6 24% 6404 73460 11654 40%
c d 29.00 25 222 0 29 8181 22 104596 15421 3.3 25 7 1 6 23% 6353 73452 11612 40%
c d 29.01 25 222 0 29 8181 22 104596 15421 3.3 25 7 1 6 23% 6349 73452 11610 40%
c u 29.07 25 222 0 29 8181 22 104596 13608 3.3 25 7 1 6 23% 6377 73452 11610 40%
c v 29.17 25 222 0 29 8181 22 104596 11276 3.3 25 7 1 6 23% 6393 73452 11610 40%
c w 29.28 25 222 0 29 8181 22 104596 11136 3.3 25 7 1 6 23% 6393 73452 11610 40%
c x 29.37 25 222 0 29 8181 22 104596 11134 3.3 25 7 1 6 23% 6403 73341 11610 40%
c = 29.53 25 222 0 29 8181 22 104596 11134 3.3 25 7 1 6 23% 6899 72942 11288 39%
c } 29.53 25 222 0 29 8181 22 104596 11134 3.3 25 7 1 6 23% 6899 72942 11535 40%
c 0 29.53 25 222 0 29 8181 22 104596 11134 3.3 25 7 1 6 23% 6899 72942 11535 40%
c
c ---- [ result ] ------------------------------------------------------------
c
s UNSATISFIABLE
c
c ---- [ profiling ] ---------------------------------------------------------
c
c          20.22   68.47 %  search
c          20.22   68.47 %  focused
c           8.93   30.24 %  simplify
c           8.39   28.43 %  probe
c           3.43   11.62 %  vivify
c           3.08   10.42 %  sweep
c           0.74    2.49 %  eliminate
c           0.61    2.06 %  factor
c           0.58    1.97 %  congruence
c           0.50    1.68 %  substitute
c           0.33    1.13 %  preprocess
c           0.18    0.62 %  reduce
c           0.14    0.47 %  subsume
c           0.13    0.44 %  transitive
c           0.13    0.44 %  fastel
c           0.07    0.23 %  backbone
c           0.02    0.08 %  lucky
c           0.02    0.07 %  parse
c =============================================
c          29.53  100.00 %  total
c
c ---- [ statistics ] --------------------------------------------------------
c
c chronological:                         5152                5 %  conflicts
c conflicts:                           104596             3542.07 per second
c congruent:                             2856               10 %  variables
c decisions:                          2316217               22.14 per conflict
c eliminated:                           13745               47 %  variables
c factored:                              5947               20 %  variables
c fast_eliminated:                       9021               66 %  eliminated
c fast_strengthened:                       90                6 %  per strengthened
c fast_subsumed:                           85                1 %  per subsumed
c iterations:                               3                0 %  variables
c propagations:                      91114252          3085521    per second
c reductions:                              29             3607    interval
c reordered:                                4            26149    interval
c restarts:                              8181               13    interval
c strengthened:                          1602                0 %  checks
c substituted:                           9721               33 %  variables
c subsumed:                             15784                1 %  checks
c switched:                                 0                0    interval
c vivified:                             56810               15 %  checks
c
c ---- [ glue usage ] --------------------------------------------------------
c
c focused glue 1   used 150030 clauses 55.39% accumulated 55.39% tier1
c focused glue 2   used  54722 clauses 20.20% accumulated 75.59%
c focused glue 3-4 used  30564 clauses 11.28% accumulated 86.87%
c focused glue 5   used   8375 clauses  3.09% accumulated 89.96%
c focused glue 6   used   5758 clauses  2.13% accumulated 92.09% tier2
c
c ---- [ resources ] ---------------------------------------------------------
c
c maximum-resident-set-size:         26353664 bytes         25 MB
c process-time:                            30s              29.53 seconds
c
c ---- [ shutting down ] -----------------------------------------------------
c
c exit 20
